Ca2 Lu2 Mn4 O12
1.0
   5.2937370000000001    0.0000000000000000    0.0000000000000003
   0.0000000000000009    5.5386590000000000    0.0000000000000003
   0.0000000000000000    0.0000000000000000    7.5632880000000000
Ca Lu Mn O
2 2 4 12
direct
   0.2359900000000000    0.4447680000000000    0.5000000000000000 Ca
   0.7640100000000000    0.9447680000000001    0.5000000000000000 Ca
   0.2652610000000000    0.5714520000000000    0.0000000000000000 Lu
   0.7347390000000000    0.0714520000000000    0.0000000000000000 Lu
   0.7538960000000000    0.5025080000000000    0.7495910000000000 Mn
   0.2461040000000000    0.0025080000000000    0.2504090000000000 Mn
   0.7538960000000000    0.5025080000000000    0.2504090000000000 Mn
   0.2461040000000000    0.0025080000000000    0.7495910000000000 Mn
   0.5473160000000000    0.7990270000000000    0.8141090000000000 O
   0.4526840000000000    0.2990270000000000    0.1858910000000000 O
   0.9404979999999999    0.1945070000000000    0.2855090000000000 O
   0.0595020000000000    0.6945070000000000    0.7144910000000000 O
   0.9404979999999999    0.1945070000000000    0.7144910000000000 O
   0.0595020000000000    0.6945070000000000    0.2855090000000000 O
   0.5473160000000000    0.7990270000000000    0.1858910000000000 O
   0.4526840000000000    0.2990270000000000    0.8141090000000000 O
   0.1399520000000000    0.9627200000000000    0.0000000000000000 O
   0.8600480000000000    0.4627200000000000    0.0000000000000000 O
   0.3369510000000000    0.0289750000000000    0.5000000000000000 O
   0.6630490000000000    0.5289750000000000    0.5000000000000000 O
