Sr8 Co4 Si8 O28
1.0
   8.1056069998577041    0.0000000000000000    0.0000480289054420
  -0.0000100007423373    8.1055049997305542    0.0000653298068512
   0.0000000000000000    0.0000000000000000   10.4571919999999992
Sr Co Si O
8 4 8 28
direct
   0.1665860000000000    0.6665800000000000    0.2532120000000000 Sr
   0.1665780000000000    0.6665910000000000    0.7532050000000000 Sr
   0.8334070000000000    0.3333950000000000    0.2532070000000000 Sr
   0.8334160000000000    0.3334290000000000    0.7532190000000000 Sr
   0.6665870000000000    0.8334080000000000    0.2467880000000000 Sr
   0.6665840000000000    0.8334170000000000    0.7467840000000000 Sr
   0.3334260000000000    0.1665790000000000    0.2467880000000000 Sr
   0.3334200000000000    0.1665810000000000    0.7467930000000000 Sr
   0.9999980000000001    0.0000010000000000    0.4999950000000000 Co
   0.4999990000000000    0.5000019999999999    0.0000040000000000 Co
   0.0000020000000000    0.0000030000000000    0.9999960000000000 Co
   0.4999990000000000    0.4999970000000000    0.5000040000000000 Co
   0.6382890000000000    0.1382860000000000    0.4724300000000000 Si
   0.6382820000000000    0.1382880000000000    0.9724290000000000 Si
   0.3617120000000000    0.8617190000000000    0.4724290000000000 Si
   0.3617160000000000    0.8617150000000000    0.9724310000000000 Si
   0.1382870000000000    0.3617140000000000    0.0275710000000000 Si
   0.1382770000000000    0.3617110000000000    0.5275700000000000 Si
   0.8617190000000000    0.6382820000000000    0.0275690000000000 Si
   0.8617120000000000    0.6382880000000000    0.5275700000000000 Si
   0.9999990000000000    0.4999960000000000    0.0820470000000000 O
   0.9999960000000000    0.5000010000000000    0.5820450000000000 O
   0.4999990000000000    0.0000050000000000    0.4179550000000000 O
   0.5000030000000000    0.9999990000000000    0.9179550000000000 O
   0.6398280000000000    0.1398370000000000    0.1269570000000000 O
   0.6398380000000000    0.1398320000000000    0.6269560000000000 O
   0.3601690000000000    0.8601670000000000    0.1269580000000000 O
   0.3601660000000000    0.8601650000000000    0.6269580000000000 O
   0.1398320000000000    0.3601640000000000    0.3730430000000000 O
   0.1398340000000000    0.3601670000000000    0.8730450000000000 O
   0.8601640000000000    0.6398330000000000    0.3730440000000000 O
   0.8601700000000000    0.6398320000000000    0.8730390000000000 O
   0.0798600000000000    0.1910640000000000    0.1005930000000000 O
   0.0798470000000000    0.1910680000000000    0.6005930000000000 O
   0.9201470000000000    0.8089290000000000    0.1005870000000000 O
   0.9201510000000001    0.8089310000000000    0.6005870000000000 O
   0.1910760000000000    0.9201549999999999    0.3994090000000000 O
   0.1910720000000000    0.9201460000000000    0.8994110000000000 O
   0.4201420000000000    0.6910720000000000    0.3994110000000000 O
   0.4201470000000000    0.6910730000000000    0.8994090000000000 O
   0.8089280000000000    0.0798450000000000    0.3994080000000000 O
   0.8089290000000000    0.0798610000000000    0.8994140000000000 O
   0.5798640000000000    0.3089340000000000    0.3994100000000000 O
   0.5798500000000000    0.3089300000000000    0.8994070000000000 O
   0.3089280000000000    0.4201470000000000    0.1005920000000000 O
   0.3089210000000000    0.4201440000000000    0.6005890000000000 O
   0.6910760000000000    0.5798540000000000    0.1005880000000000 O
   0.6910660000000000    0.5798610000000000    0.6005940000000000 O
