Nb6 Cr2 S12
1.0
   5.8043144999999994    0.0000000000000000    0.0000001033304865
  -2.9021552527803105    5.0266849039141146   -0.0000006372046639
   0.0000000000000000    0.0000000000000000   12.2212095200000004
Nb Cr S
6 2 12
direct
   0.0000000400000000    0.0000001800000000    0.5000212300000000 Nb
   0.9999997300000000    0.9999999600000000    0.9999790600000000 Nb
   0.3333333333333333    0.6666666666666666    0.9964633000000001 Nb
   0.6666666666666666    0.3333333333333333    0.0034912400000000 Nb
   0.6666666666666666    0.3333333333333333    0.4965090400000000 Nb
   0.3333333333333333    0.6666666666666666    0.5035369400000000 Nb
   0.3333333333333333    0.6666666666666666    0.2500000400000000 Cr
   0.6666666666666666    0.3333333333333333    0.7500001200000000 Cr
   0.3314429100000000    0.3348148500000000    0.3707273300000000 S
   0.6651851900000000    0.9966282800000000    0.3707275000000000 S
   0.0033719900000000    0.6685572500000000    0.3707273000000000 S
   0.3348223300000000    0.3314415700000000    0.6293021100000000 S
   0.9966192200000000    0.6651779100000000    0.6293019800000000 S
   0.6685585900000000    0.0033810700000000    0.6293020900000000 S
   0.6685583300000000    0.6651778100000000    0.8706982100000000 S
   0.3348219000000000    0.0033806500000000    0.8706983600000000 S
   0.9966190300000000    0.3314413900000000    0.8706982200000000 S
   0.6651850600000000    0.6685568900000000    0.1292726900000000 S
   0.0033715500000000    0.3348146800000000    0.1292725400000000 S
   0.3314428000000000    0.9966281200000000    0.1292726900000000 S
